NAME: concorde91
TYPE: TSP
DIMENSION: 15 
EDGE_WEIGHT_TYPE: EUC_2D
NODE_COORD_SECTION
1 60 21
2 49 46
3 78 65
4 89 97
5 20 68
6 31 44
7 33 36
8 20 46
9 23 44
10 27 24
11 59 70
12 25 41
13 12 33
14 23 57
15 60 97
